SDVRP instances/custom_instances/p02_19_splitx10_0.vrp
NAME:p02_19_splitx10_
BEST_KNOWN: 0
COMMENT: 0
DIMENSION: 331
CAPACITY: 1400
EDGE_WEIGHT_FORMAT: FUNCTION
EDGE_WEIGHT_TYPE: EXACT_2D
NODE_COORD_SECTION
1 0.00000 0.00000
2 -37 -20
3 -37 -20
4 -37 -20
5 -37 -20
6 -40 -47
7 -40 -47
8 22 44
9 22 44
10 22 44
11 22 44
12 22 44
13 22 44
14 0 -5
15 0 -5
16 0 -5
17 0 -5
18 0 -5
19 -4 34
20 -4 34
21 -4 34
22 -4 34
23 -4 34
24 -4 34
25 16 22
26 16 22
27 16 22
28 16 22
29 16 22
30 -21 47
31 -21 47
32 -21 47
33 -21 47
34 -21 47
35 -5 -26
36 -5 -26
37 25 -44
38 7 -27
39 7 -27
40 7 -27
41 7 -27
42 7 -27
43 7 -27
44 -8 16
45 -8 16
46 -8 16
47 -8 16
48 -4 43
49 -4 43
50 -4 43
51 -35 -40
52 -35 -40
53 -35 -40
54 -35 -40
55 -35 -40
56 -35 -40
57 -23 -39
58 -23 -39
59 -23 -39
60 -23 -39
61 -23 -39
62 -23 -39
63 -11 -37
64 -11 -37
65 -11 -37
66 -3 43
67 -3 43
68 -3 43
69 -3 43
70 24 20
71 24 20
72 24 20
73 0 -48
74 0 -48
75 0 -48
76 -37 -43
77 -37 -43
78 -37 -43
79 -37 -43
80 -37 -43
81 25 29
82 25 29
83 16 -46
84 16 -46
85 16 -46
86 0 -48
87 0 -48
88 0 -48
89 0 -48
90 7 47
91 7 47
92 7 47
93 7 47
94 -34 -29
95 -34 -29
96 -34 -29
97 -34 -29
98 -34 -29
99 -34 -29
100 17 -42
101 17 -42
102 17 -42
103 17 -42
104 24 45
105 24 45
106 24 45
107 24 45
108 24 45
109 24 45
110 24 45
111 6 -35
112 6 -35
113 6 -35
114 6 -35
115 6 -35
116 6 -35
117 -7 31
118 -7 31
119 -7 31
120 -7 31
121 -21 32
122 -26 -19
123 -26 -19
124 -26 -19
125 20 22
126 20 22
127 20 22
128 -1 36
129 -1 36
130 -1 36
131 -1 36
132 -1 36
133 -1 36
134 -14 -34
135 -14 -34
136 -14 -34
137 -14 -34
138 -14 -34
139 -14 -34
140 50 -42
141 50 -42
142 50 -42
143 50 -42
144 50 -42
145 50 -42
146 -47 40
147 -47 40
148 -47 40
149 -47 40
150 -47 40
151 -47 40
152 -47 40
153 -43 24
154 -43 24
155 -43 24
156 -43 24
157 2 -33
158 2 -33
159 2 -33
160 2 -33
161 9 -45
162 9 -45
163 9 -45
164 9 -45
165 -47 42
166 -47 42
167 -47 42
168 -13 -9
169 -13 -9
170 -13 -9
171 -13 -9
172 -13 -9
173 -13 -9
174 -13 -9
175 -11 -45
176 -38 4
177 -38 4
178 -38 4
179 -38 4
180 -38 4
181 -38 4
182 9 -29
183 9 -29
184 -12 -6
185 -12 -6
186 -12 -6
187 -12 -6
188 20 -35
189 20 -35
190 20 -35
191 20 -35
192 20 -35
193 -48 -19
194 -48 -19
195 -48 -19
196 -48 -19
197 -48 -19
198 -48 -19
199 -44 -29
200 -44 -29
201 -44 -29
202 -44 -29
203 -44 -29
204 24 26
205 24 26
206 24 26
207 24 26
208 24 26
209 24 26
210 -26 4
211 -26 4
212 -26 4
213 -26 4
214 -26 4
215 26 0
216 26 0
217 26 0
218 -1 -31
219 -1 -31
220 -1 -31
221 -1 -31
222 44 49
223 44 49
224 44 49
225 44 49
226 44 49
227 44 49
228 44 49
229 49 -49
230 49 -49
231 49 -49
232 49 -49
233 49 -49
234 3 46
235 3 46
236 3 46
237 3 46
238 13 19
239 13 19
240 -34 -49
241 -34 -49
242 -34 -49
243 -34 -49
244 -34 -49
245 40 -32
246 40 -32
247 40 -32
248 -30 -7
249 -30 -7
250 -30 -7
251 -30 -7
252 -30 -7
253 -30 -7
254 -30 -7
255 -30 -7
256 -41 -42
257 -41 -42
258 -41 -42
259 -41 -42
260 -41 -42
261 -41 -42
262 -41 -42
263 -41 -42
264 35 15
265 35 15
266 35 15
267 -40 -12
268 -40 -12
269 -40 -12
270 -40 -12
271 -40 -12
272 -40 -12
273 -40 -12
274 14 33
275 14 33
276 33 -8
277 33 -8
278 29 17
279 29 17
280 29 17
281 29 17
282 29 17
283 29 17
284 33 -29
285 33 -29
286 33 -29
287 33 -29
288 33 -29
289 33 -29
290 27 47
291 27 47
292 27 47
293 27 47
294 27 47
295 5 -13
296 5 -13
297 5 -13
298 -22 -7
299 -22 -7
300 -22 -7
301 -22 38
302 -22 38
303 -22 38
304 28 45
305 28 45
306 28 45
307 28 45
308 41 26
309 41 26
310 41 26
311 41 26
312 41 26
313 41 26
314 41 26
315 41 26
316 -10 15
317 -10 15
318 -10 15
319 -10 15
320 -10 15
321 -10 15
322 -30 49
323 -30 49
324 -30 49
325 -30 49
326 20 39
327 20 39
328 20 39
329 20 39
330 -22 -40
331 -22 -40
DEMAND_SECTION
1 0
2 140
3 14
4 14
5 12
6 280
7 70
8 280
9 280
10 70
11 14
12 14
13 2
14 280
15 280
16 14
17 14
18 12
19 280
20 140
21 14
22 14
23 14
24 8
25 280
26 140
27 14
28 14
29 12
30 140
31 70
32 14
33 14
34 2
35 280
36 10
37 280
38 280
39 70
40 14
41 14
42 14
43 8
44 280
45 14
46 14
47 2
48 280
49 280
50 10
51 140
52 14
53 14
54 14
55 14
56 4
57 280
58 14
59 14
60 14
61 14
62 4
63 280
64 140
65 70
66 280
67 280
68 70
69 10
70 280
71 70
72 10
73 280
74 280
75 10
76 140
77 14
78 14
79 14
80 8
81 140
82 70
83 280
84 14
85 6
86 280
87 140
88 70
89 10
90 140
91 70
92 14
93 6
94 280
95 280
96 70
97 14
98 14
99 2
100 280
101 70
102 14
103 6
104 280
105 140
106 70
107 14
108 14
109 14
110 8
111 280
112 140
113 14
114 14
115 14
116 8
117 140
118 70
119 14
120 6
121 280
122 280
123 280
124 70
125 280
126 70
127 10
128 280
129 140
130 70
131 14
132 14
133 12
134 280
135 140
136 70
137 14
138 14
139 2
140 140
141 14
142 14
143 14
144 14
145 4
146 280
147 280
148 70
149 14
150 14
151 14
152 8
153 140
154 14
155 14
156 12
157 140
158 70
159 14
160 6
161 280
162 140
163 70
164 10
165 280
166 140
167 10
168 280
169 70
170 14
171 14
172 14
173 14
174 4
175 280
176 280
177 14
178 14
179 14
180 14
181 4
182 140
183 70
184 140
185 14
186 14
187 12
188 140
189 14
190 14
191 14
192 8
193 140
194 70
195 14
196 14
197 14
198 8
199 140
200 14
201 14
202 14
203 8
204 140
205 14
206 14
207 14
208 14
209 4
210 280
211 70
212 14
213 14
214 12
215 280
216 140
217 70
218 140
219 70
220 14
221 6
222 280
223 140
224 14
225 14
226 14
227 14
228 4
229 280
230 70
231 14
232 14
233 12
234 280
235 14
236 14
237 2
238 140
239 70
240 280
241 70
242 14
243 14
244 2
245 280
246 70
247 10
248 280
249 280
250 70
251 14
252 14
253 14
254 14
255 4
256 280
257 280
258 70
259 14
260 14
261 14
262 14
263 4
264 280
265 70
266 10
267 280
268 280
269 14
270 14
271 14
272 14
273 4
274 280
275 10
276 280
277 140
278 140
279 14
280 14
281 14
282 14
283 4
284 280
285 14
286 14
287 14
288 14
289 4
290 280
291 14
292 14
293 14
294 8
295 280
296 140
297 10
298 280
299 280
300 140
301 280
302 280
303 140
304 140
305 70
306 14
307 6
308 280
309 280
310 70
311 14
312 14
313 14
314 14
315 4
316 280
317 140
318 70
319 14
320 14
321 12
322 280
323 140
324 14
325 6
326 140
327 14
328 14
329 2
330 140
331 70
DEPOT_SECTION
1
-1
EOF