SDVRP instances/custom_instances/p02_19_splitx10_0.sol
330 -2 1 3 4 198 199 201 200 202 262 256 259 261 258 260 255 257 75 79 50 51 55 52 -14 16 13 15 17 294 295 296 -30 31 32 29 33 324 322 321 323 300 301 302 -34 35 137 135 136 138 133 134 62 63 64 218 219 220 -39 40 41 37 42 38 276 275 215 214 216 -46 43 44 45 119 117 19 23 18 21 22 20 120 316 317 -54 53 78 77 76 6 5 243 240 241 242 239 329 330 57 59 61 58 60 56 -66 67 68 65 49 47 48 118 116 -71 69 70 124 125 126 28 25 26 24 27 238 237 -87 88 86 73 85 72 74 174 -98 93 96 97 95 94 121 122 123 170 169 -105 109 104 107 103 106 108 11 9 7 8 10 12 326 328 325 327 -112 110 114 115 111 113 162 163 160 161 157 158 159 156 217 -131 132 130 127 128 129 236 235 233 234 91 89 92 90 274 273 -153 154 152 155 145 151 150 148 147 149 146 165 164 166 -168 171 172 173 167 299 298 297 185 186 183 184 -178 180 176 175 179 177 195 194 196 193 192 197 270 272 269 268 266 267 271 252 250 -182 181 101 102 100 99 82 84 83 36 187 189 190 191 188 -203 314 307 311 308 313 309 312 310 264 263 265 281 278 282 279 280 277 -205 208 206 207 204 80 81 223 224 225 226 222 221 227 291 293 289 292 290 305 306 304 303 -244 246 245 143 140 141 144 139 142 229 231 228 232 230 288 286 283 287 284 285 -253 249 251 254 248 247 210 213 211 212 209 319 318 315 320 0 





OBJ=
2198.760
BEST_KNOWN=
0.000